c CNF file corresponding to a (partial) station packing problem.
p cnf 2153 229
1 2 3 4 5 6 7 8 9 10 11 12 13 14 0
-1 -2 0
-1 -3 0
-1 -4 0
-1 -5 0
-1 -6 0
-1 -7 0
-1 -8 0
-1 -9 0
-1 -10 0
-1 -11 0
-1 -12 0
-1 -13 0
-1 -14 0
-2 -3 0
-2 -4 0
-2 -5 0
-2 -6 0
-2 -7 0
-2 -8 0
-2 -9 0
-2 -10 0
-2 -11 0
-2 -12 0
-2 -13 0
-2 -14 0
-3 -4 0
-3 -5 0
-3 -6 0
-3 -7 0
-3 -8 0
-3 -9 0
-3 -10 0
-3 -11 0
-3 -12 0
-3 -13 0
-3 -14 0
-4 -5 0
-4 -6 0
-4 -7 0
-4 -8 0
-4 -9 0
-4 -10 0
-4 -11 0
-4 -12 0
-4 -13 0
-4 -14 0
-5 -6 0
-5 -7 0
-5 -8 0
-5 -9 0
-5 -10 0
-5 -11 0
-5 -12 0
-5 -13 0
-5 -14 0
-6 -7 0
-6 -8 0
-6 -9 0
-6 -10 0
-6 -11 0
-6 -12 0
-6 -13 0
-6 -14 0
-7 -8 0
-7 -9 0
-7 -10 0
-7 -11 0
-7 -12 0
-7 -13 0
-7 -14 0
-8 -9 0
-8 -10 0
-8 -11 0
-8 -12 0
-8 -13 0
-8 -14 0
-9 -10 0
-9 -11 0
-9 -12 0
-9 -13 0
-9 -14 0
-10 -11 0
-10 -12 0
-10 -13 0
-10 -14 0
-11 -12 0
-11 -13 0
-11 -14 0
-12 -13 0
-12 -14 0
-13 -14 0
2137 2138 2139 2140 2141 2142 2143 2144 2145 2146 2147 2148 2149 2150 2151 2152 2153 0
-2137 -2138 0
-2137 -2139 0
-2137 -2140 0
-2137 -2141 0
-2137 -2142 0
-2137 -2143 0
-2137 -2144 0
-2137 -2145 0
-2137 -2146 0
-2137 -2147 0
-2137 -2148 0
-2137 -2149 0
-2137 -2150 0
-2137 -2151 0
-2137 -2152 0
-2137 -2153 0
-2138 -2139 0
-2138 -2140 0
-2138 -2141 0
-2138 -2142 0
-2138 -2143 0
-2138 -2144 0
-2138 -2145 0
-2138 -2146 0
-2138 -2147 0
-2138 -2148 0
-2138 -2149 0
-2138 -2150 0
-2138 -2151 0
-2138 -2152 0
-2138 -2153 0
-2139 -2140 0
-2139 -2141 0
-2139 -2142 0
-2139 -2143 0
-2139 -2144 0
-2139 -2145 0
-2139 -2146 0
-2139 -2147 0
-2139 -2148 0
-2139 -2149 0
-2139 -2150 0
-2139 -2151 0
-2139 -2152 0
-2139 -2153 0
-2140 -2141 0
-2140 -2142 0
-2140 -2143 0
-2140 -2144 0
-2140 -2145 0
-2140 -2146 0
-2140 -2147 0
-2140 -2148 0
-2140 -2149 0
-2140 -2150 0
-2140 -2151 0
-2140 -2152 0
-2140 -2153 0
-2141 -2142 0
-2141 -2143 0
-2141 -2144 0
-2141 -2145 0
-2141 -2146 0
-2141 -2147 0
-2141 -2148 0
-2141 -2149 0
-2141 -2150 0
-2141 -2151 0
-2141 -2152 0
-2141 -2153 0
-2142 -2143 0
-2142 -2144 0
-2142 -2145 0
-2142 -2146 0
-2142 -2147 0
-2142 -2148 0
-2142 -2149 0
-2142 -2150 0
-2142 -2151 0
-2142 -2152 0
-2142 -2153 0
-2143 -2144 0
-2143 -2145 0
-2143 -2146 0
-2143 -2147 0
-2143 -2148 0
-2143 -2149 0
-2143 -2150 0
-2143 -2151 0
-2143 -2152 0
-2143 -2153 0
-2144 -2145 0
-2144 -2146 0
-2144 -2147 0
-2144 -2148 0
-2144 -2149 0
-2144 -2150 0
-2144 -2151 0
-2144 -2152 0
-2144 -2153 0
-2145 -2146 0
-2145 -2147 0
-2145 -2148 0
-2145 -2149 0
-2145 -2150 0
-2145 -2151 0
-2145 -2152 0
-2145 -2153 0
-2146 -2147 0
-2146 -2148 0
-2146 -2149 0
-2146 -2150 0
-2146 -2151 0
-2146 -2152 0
-2146 -2153 0
-2147 -2148 0
-2147 -2149 0
-2147 -2150 0
-2147 -2151 0
-2147 -2152 0
-2147 -2153 0
-2148 -2149 0
-2148 -2150 0
-2148 -2151 0
-2148 -2152 0
-2148 -2153 0
-2149 -2150 0
-2149 -2151 0
-2149 -2152 0
-2149 -2153 0
-2150 -2151 0
-2150 -2152 0
-2150 -2153 0
-2151 -2152 0
-2151 -2153 0
-2152 -2153 0
